NAME : rcdp1004
TYPE : VRPSPDTW
DIMENSION : 11
VEHICLES : 2
CAPACITY : 200
EDGE_WEIGHT_TYPE : EXACT_2D
NODE_COORD_SECTION
1 40 50
2 5 35
3 0 45
4 67 85
5 25 30
6 2 60
7 8 56
8 37 47
9 53 43
10 57 48
11 55 54
PICKUP_AND_DELIVERY_SECTION
1 0 0 240 0 0 0
2 0 142 172 10 20 10
3 0 0 189 10 40 20
4 0 0 185 10 20 20
5 0 0 205 10 9 3
6 0 0 190 10 17 5
7 0 0 197 10 5 27
8 0 0 225 10 6 6
9 0 14 44 10 12 14
10 0 0 212 10 17 23
11 0 0 214 10 8 26
DEPOT_SECTION
1 
-1
